language ESSENCE' 1.0
$ minion Nodes: 1
$ minion TotalTime: 0.000377
$ Savile Row TotalTime: 0.113
letting pain_tuple1 be [2]
letting pain_tuple3_tuple2 be [11]
letting pain_tuple3_tuple1 be [10]
letting pain_tuple2_tuple1 be [5]
